language ESSENCE' 1.0
$ Futoshiki instance, by Andras Salamon
$ specify the numbers in the grid
letting values be [[0, 0, 0, 0, 0], [0, 0, 0, 0, 0], [0, 0, 0, 0, 0], [0, 0, 0, 0, 0], [0, 0, 0, 0, 0]]
$ specify last index in array lt; lt[0] is first entry
letting lastdx be 14
$ [i1,j1,i2,j2] requires that values[i1,j1]<values[i2,j2]
letting lt be [[4, 1, 5, 3], [5, 2, 1, 1], [5, 4, 2, 4], [2, 1, 1, 1], [1, 5, 1, 4], [4, 1, 4, 4], [1, 4, 3, 3], [2, 3, 5, 1], [1, 1, 4, 1], [4, 1, 1, 2], [4, 1, 2, 3], [1, 3, 2, 1], [5, 4, 4, 3], [2, 4, 3, 3], [4, 5, 5, 5]]
